Route #1: 19 51 8 24 12 18 25 44 13 42 
Route #2: 6 5 50 57 47 31 
Route #3: 61 32 56 14 33 49 30 
Route #4: 11 3 22 52 26 20 
Route #5: 40 63 53 36 7 27 34 62 43 
Route #6: 55 59 15 58 39 54 38 
Route #7: 2 28 37 21 46 
Route #8: 29 45 17 41 4 
Route #9: 16 48 10 35 23 
Route #10: 9 60 
cost 1685.46
